NAME : sim51.75671.tour
COMMENT : Length = 75671
COMMENT : Found by LKH [Keld Helsgaun] Wed Aug 29 08:53:11 2018
TYPE : TOUR
DIMENSION : 51
TOUR_SECTION
1
30
15
48
3
35
47
33
37
17
20
44
8
51
34
11
26
24
22
7
36
14
29
42
19
4
31
5
39
45
2
21
16
9
38
43
23
6
50
12
28
13
32
10
27
40
18
41
49
25
46
-1
EOF
